data;


param d:= 100;
param r:=5;
param p:=0.760000;
param M:=1000;
param U:=
         1         1       -2.204695e+00
         2         1       -3.912120e-01
         3         1        4.728839e-01
         4         1        1.388621e+00
         5         1        3.505353e-01
         6         1       -1.441152e-01
         7         1       -1.335276e+00
         8         1       -1.100297e+00
         9         1       -6.471432e-02
        10         1        1.875620e+00
        11         1        5.621661e-01
        12         1       -2.971050e-01
        13         1        4.630443e-02
        14         1        1.147534e+00
        15         1       -2.324649e+00
        16         1        7.958197e-01
        17         1       -1.302105e+00
        18         1       -1.781126e+00
        19         1       -1.444501e-01
        20         1       -1.533744e+00
        21         1        8.683642e-01
        22         1       -5.867444e-01
        23         1       -8.553287e-01
        24         1       -1.456259e+00
        25         1       -7.032486e-01
        26         1       -1.470440e-01
        27         1        2.065848e+00
        28         1        2.087004e-01
        29         1        2.509308e-02
        30         1       -6.018741e-01
        31         1        3.164263e-01
        32         1       -2.686910e+00
        33         1        3.572651e-01
        34         1        2.945208e-01
        35         1       -4.789717e-01
        36         1       -1.063956e+00
        37         1       -9.008457e-01
        38         1       -2.710067e-01
        39         1        8.601184e-01
        40         1        1.031295e+00
        41         1       -1.187987e+00
        42         1       -1.537668e+00
        43         1       -6.726954e-01
        44         1       -5.394735e-01
        45         1       -1.251292e+00
        46         1       -1.295318e+00
        47         1        4.572371e-01
        48         1        3.862775e-02
        49         1        6.752132e-01
        50         1       -1.020644e-01
        51         1        1.108836e+00
        52         1        8.677056e-01
        53         1        1.335101e+00
        54         1        3.290865e-01
        55         1       -1.202406e+00
        56         1       -1.426018e+00
        57         1       -4.037825e-01
        58         1        1.555648e+00
        59         1        8.414025e-01
        60         1       -9.862953e-01
        61         1        5.747375e-01
        62         1       -1.379544e+00
        63         1       -9.747098e-01
        64         1        5.465667e-01
        65         1       -1.735714e-01
        66         1        6.546854e-01
        67         1       -1.175388e-01
        68         1       -6.008949e-01
        69         1       -5.407657e-01
        70         1        2.832054e-01
        71         1       -1.457038e+00
        72         1        5.516992e-02
        73         1        5.573315e-01
        74         1       -9.030410e-01
        75         1       -4.269364e-01
        76         1       -7.358405e-02
        77         1        1.022962e+00
        78         1        1.479301e+00
        79         1        1.436992e+00
        80         1        8.748524e-01
        81         1       -1.621168e-01
        82         1       -4.041750e-01
        83         1       -1.281190e+00
        84         1       -2.807618e-03
        85         1        4.683652e-01
        86         1       -2.076767e-02
        87         1       -2.053600e-01
        88         1       -9.381217e-01
        89         1        2.884501e-01
        90         1       -3.148431e+00
        91         1       -1.726385e-01
        92         1        4.526198e-01
        93         1       -3.242612e-02
        94         1       -8.915523e-01
        95         1        4.730610e-01
        96         1       -2.172613e-01
        97         1       -3.514572e-01
        98         1       -1.715628e+00
        99         1        4.889208e-01
       100         1       -9.143944e-01
         1         2       -6.505965e-02
         2         2       -7.671849e-02
         3         2        6.997785e-01
         4         2       -5.492632e-01
         5         2       -4.002639e-01
         6         2       -1.186256e+00
         7         2       -7.765900e-01
         8         2        9.711573e-03
         9         2       -8.454038e-01
        10         2        1.258271e+00
        11         2        4.613822e-01
        12         2       -9.398380e-01
        13         2        1.811900e+00
        14         2       -9.460681e-01
        15         2        9.980793e-01
        16         2        1.035472e+00
        17         2       -1.953434e-01
        18         2       -2.565116e-01
        19         2       -3.928553e-01
        20         2       -2.361709e-01
        21         2       -4.293647e-02
        22         2       -2.210863e+00
        23         2        5.099138e-01
        24         2        1.201440e+00
        25         2        1.083068e-01
        26         2        1.850174e+00
        27         2       -1.817064e-01
        28         2        9.248739e-01
        29         2       -8.556366e-01
        30         2        1.746995e+00
        31         2       -3.537251e-01
        32         2        1.693940e-01
        33         2       -1.827691e+00
        34         2        7.115906e-01
        35         2        1.039267e+00
        36         2       -6.634224e-01
        37         2       -6.997419e-02
        38         2       -1.699900e-01
        39         2        1.017103e+00
        40         2        1.103066e+00
        41         2        1.365469e+00
        42         2        2.449927e-01
        43         2        6.868738e-01
        44         2       -4.439277e-01
        45         2        7.301715e-01
        46         2        6.499450e-01
        47         2        2.800259e-01
        48         2       -1.566595e+00
        49         2        1.183314e+00
        50         2       -7.452276e-01
        51         2        3.536210e+00
        52         2        1.895867e+00
        53         2       -4.950996e-01
        54         2        6.698186e-01
        55         2        2.860235e-01
        56         2        1.283241e+00
        57         2        6.353791e-01
        58         2       -1.041895e+00
        59         2        2.710816e-02
        60         2       -3.188298e-01
        61         2        2.360518e-01
        62         2        1.918864e+00
        63         2       -3.160393e-01
        64         2       -7.668464e-01
        65         2        7.300634e-01
        66         2        2.106474e-02
        67         2        4.588071e-02
        68         2        1.460378e+00
        69         2       -1.651467e+00
        70         2        7.383940e-02
        71         2        2.025765e+00
        72         2        1.822090e+00
        73         2       -2.669604e-01
        74         2       -4.242797e-01
        75         2        1.363886e+00
        76         2       -3.626080e-01
        77         2        1.842181e+00
        78         2       -1.876521e-01
        79         2       -7.702241e-01
        80         2       -1.353189e+00
        81         2       -3.658238e-01
        82         2        5.342950e-01
        83         2        1.419702e+00
        84         2       -1.413230e+00
        85         2        1.714421e-01
        86         2        1.775580e+00
        87         2        3.339834e-01
        88         2       -1.191320e+00
        89         2        1.835594e+00
        90         2        7.589094e-01
        91         2        1.112958e+00
        92         2        4.217274e-01
        93         2        1.376371e+00
        94         2       -6.797746e-01
        95         2        7.520742e-01
        96         2        4.104064e-01
        97         2        1.378506e+00
        98         2       -9.005979e-01
        99         2        1.022607e+00
       100         2        2.857670e-01
         1         3        6.871300e-01
         2         3       -5.530658e-01
         3         3        9.012337e-01
         4         3       -1.949335e-01
         5         3       -2.719235e-01
         6         3        1.181051e+00
         7         3       -1.087526e-01
         8         3        4.768194e-01
         9         3        4.600340e-01
        10         3       -1.610329e+00
        11         3        1.125208e+00
        12         3        3.031642e-01
        13         3        2.396950e-01
        14         3       -7.744666e-01
        15         3        9.657319e-02
        16         3        5.125871e-01
        17         3        9.909884e-01
        18         3        5.292231e-01
        19         3       -1.039525e+00
        20         3        9.794796e-01
        21         3       -1.115723e+00
        22         3       -3.629410e-01
        23         3       -4.587176e-02
        24         3       -3.530114e-01
        25         3       -2.512795e-01
        26         3       -6.749233e-01
        27         3        8.002944e-01
        28         3        3.394845e-01
        29         3       -8.144967e-01
        30         3        4.449303e-01
        31         3       -1.380743e+00
        32         3       -1.843085e+00
        33         3       -1.328431e-01
        34         3        5.928807e-01
        35         3       -6.720117e-01
        36         3        9.853299e-01
        37         3        1.435107e+00
        38         3        1.409149e-01
        39         3        1.119265e+00
        40         3        9.283655e-01
        41         3       -9.326994e-01
        42         3       -1.021736e-01
        43         3        1.280935e+00
        44         3       -1.307537e+00
        45         3       -2.812856e-01
        46         3        1.038348e+00
        47         3       -1.118920e+00
        48         3        1.061652e+00
        49         3       -3.143308e-01
        50         3       -5.421694e-01
        51         3       -1.197361e+00
        52         3        1.364977e+00
        53         3        1.671459e-01
        54         3       -1.440322e+00
        55         3       -8.494785e-01
        56         3        4.561335e-01
        57         3       -9.851133e-01
        58         3       -4.564127e-01
        59         3        2.347316e-01
        60         3        3.782440e-01
        61         3       -1.314603e+00
        62         3        6.063192e-01
        63         3        6.989850e-01
        64         3        1.080984e+00
        65         3        3.886366e-01
        66         3       -4.364702e-02
        67         3        5.089996e-01
        68         3        3.797900e-01
        69         3       -1.416616e+00
        70         3       -8.547109e-01
        71         3        6.229700e-01
        72         3       -2.897999e-01
        73         3       -1.894606e+00
        74         3        5.354653e-01
        75         3        6.658963e-01
        76         3        3.521303e-01
        77         3        1.729516e-02
        78         3       -5.593891e-01
        79         3       -7.894231e-01
        80         3        2.139675e-01
        81         3        2.360449e-01
        82         3       -2.090076e-02
        83         3       -1.069623e-01
        84         3        4.577848e-02
        85         3        1.145704e+00
        86         3        1.061531e+00
        87         3       -7.111686e-01
        88         3       -3.537640e-01
        89         3       -9.379843e-01
        90         3       -4.150350e-01
        91         3       -5.576978e-01
        92         3       -1.787363e-01
        93         3       -2.980092e+00
        94         3        6.572933e-01
        95         3        2.618054e+00
        96         3        1.474445e+00
        97         3       -1.436958e+00
        98         3       -1.710044e+00
        99         3        1.240982e+00
       100         3       -7.490958e-01
         1         4        1.228698e-01
         2         4       -7.492446e-03
         3         4        8.100749e-01
         4         4       -1.761140e+00
         5         4       -9.620676e-01
         6         4        9.384533e-01
         7         4        8.815414e-01
         8         4        7.823155e-01
         9         4       -6.748529e-02
        10         4       -4.708117e-01
        11         4        7.904126e-01
        12         4        1.037566e+00
        13         4        2.234234e-01
        14         4       -7.973790e-01
        15         4       -1.998891e+00
        16         4       -4.610918e-01
        17         4       -1.138968e-01
        18         4        1.363108e+00
        19         4       -1.785011e-01
        20         4       -1.870623e-01
        21         4       -2.331045e-04
        22         4        6.512430e-01
        23         4       -1.148716e+00
        24         4        5.175938e-01
        25         4        1.161442e+00
        26         4       -2.462786e+00
        27         4        1.350128e+00
        28         4        4.983865e-01
        29         4        1.352410e+00
        30         4        8.733145e-01
        31         4       -1.365217e-01
        32         4        9.663858e-01
        33         4        7.658019e-01
        34         4        6.961397e-01
        35         4        1.393590e+00
        36         4       -2.269818e-01
        37         4       -2.690510e-01
        38         4        1.977637e+00
        39         4        4.394544e-01
        40         4        9.871886e-01
        41         4        6.540723e-01
        42         4        9.621514e-01
        43         4        1.062880e+00
        44         4        1.094705e+00
        45         4       -1.504596e+00
        46         4        5.091813e-01
        47         4        5.686013e-01
        48         4        2.094340e-01
        49         4        4.797530e-01
        50         4        2.371738e-01
        51         4        1.791169e+00
        52         4       -5.371055e-01
        53         4       -1.374683e-01
        54         4       -5.750952e-01
        55         4        1.270915e-01
        56         4       -6.326420e-01
        57         4        1.250676e+00
        58         4        1.800680e-01
        59         4       -6.093206e-01
        60         4       -2.066874e+00
        61         4       -8.458295e-01
        62         4       -1.064666e+00
        63         4       -1.034708e+00
        64         4       -1.227723e+00
        65         4       -8.503627e-01
        66         4       -1.248238e-01
        67         4       -1.613455e+00
        68         4        5.273378e-01
        69         4       -1.087553e+00
        70         4       -1.060050e+00
        71         4        8.717211e-01
        72         4        1.751380e-01
        73         4       -1.683441e+00
        74         4        4.779189e-01
        75         4        1.883474e+00
        76         4       -1.033643e+00
        77         4        1.210622e+00
        78         4        1.618695e+00
        79         4       -5.359077e-02
        80         4        5.200320e-01
        81         4       -9.158534e-01
        82         4       -1.430517e+00
        83         4       -4.695977e-02
        84         4       -1.558896e-01
        85         4        3.698453e-01
        86         4        1.115809e+00
        87         4        1.441192e-01
        88         4       -5.543886e-01
        89         4       -5.260927e-03
        90         4        9.289720e-01
        91         4        3.469352e-01
        92         4        4.797857e-01
        93         4       -2.825825e-01
        94         4        5.000071e-01
        95         4       -5.680317e-01
        96         4        1.246694e+00
        97         4       -1.798421e+00
        98         4       -1.259339e+00
        99         4       -5.435506e-01
       100         4       -3.999212e-01
         1         5        1.208869e+00
         2         5       -7.033061e-01
         3         5       -4.661265e-01
         4         5       -7.087913e-01
         5         5       -3.794094e-01
         6         5        9.434618e-01
         7         5        3.202737e-01
         8         5        1.057849e+00
         9         5        8.749768e-01
        10         5       -3.927359e-01
        11         5       -3.104177e-01
        12         5        4.079983e-02
        13         5        4.144456e-01
        14         5        7.662095e-01
        15         5       -1.109806e+00
        16         5       -2.797152e-01
        17         5       -1.512902e+00
        18         5       -1.535671e+00
        19         5       -1.554185e-01
        20         5        1.900168e+00
        21         5        2.166605e-02
        22         5        4.080239e-01
        23         5       -1.053418e+00
        24         5        1.788927e-01
        25         5       -4.595390e-01
        26         5       -9.624546e-01
        27         5       -1.256514e+00
        28         5       -4.283193e-02
        29         5        1.212296e+00
        30         5       -1.389559e-01
        31         5        4.338038e-01
        32         5        1.692485e+00
        33         5        1.281883e+00
        34         5       -3.536787e-01
        35         5        1.156899e-01
        36         5       -7.397993e-01
        37         5        7.605965e-01
        38         5        3.591633e-01
        39         5        2.148822e+00
        40         5        4.539010e-01
        41         5        8.208953e-01
        42         5        9.274787e-01
        43         5        2.010549e-01
        44         5       -9.979659e-02
        45         5        6.926596e-01
        46         5       -2.273453e+00
        47         5        1.428532e+00
        48         5       -7.335158e-01
        49         5        6.464964e-01
        50         5        8.530983e-02
        51         5       -6.350747e-01
        52         5        9.502651e-02
        53         5       -1.013080e+00
        54         5       -1.644828e-01
        55         5        6.985040e-01
        56         5       -1.065262e+00
        57         5        1.643477e-01
        58         5       -1.147080e+00
        59         5        6.573607e-01
        60         5       -6.994210e-02
        61         5       -8.293109e-01
        62         5       -1.937363e-01
        63         5       -6.488191e-02
        64         5        1.497212e+00
        65         5        6.817353e-01
        66         5       -5.024644e-01
        67         5       -7.559757e-01
        68         5        3.809197e-01
        69         5       -8.606389e-01
        70         5        1.950370e+00
        71         5       -1.250717e+00
        72         5        6.808477e-01
        73         5       -2.989938e-01
        74         5       -9.537425e-01
        75         5       -6.311266e-01
        76         5       -3.982717e-01
        77         5        2.908280e-01
        78         5        4.529841e-01
        79         5        1.751020e-01
        80         5       -2.576676e+00
        81         5        1.345136e-01
        82         5       -2.427748e-01
        83         5        1.604520e+00
        84         5       -4.682172e-01
        85         5       -7.632751e-01
        86         5       -1.024889e-01
        87         5        5.212027e-02
        88         5        2.990615e-01
        89         5       -1.705569e+00
        90         5        8.560231e-02
        91         5       -5.070617e-02
        92         5        9.049674e-01
        93         5       -4.315749e-01
        94         5       -4.937643e-01
        95         5       -5.860134e-02
        96         5       -4.182506e-01
        97         5        6.908216e-01
        98         5       -7.989486e-01
        99         5        7.113239e-01
       100         5       -3.218561e+00
;

param theta:=
    1        1.239457e+00
    2        2.714099e-01
    3        1.224273e+00
    4       -2.463255e+00
    5       -1.820013e+00
;
param X_true:=
    1       -4.380957e+00
    2        7.577985e-03
    3        7.046638e-01
    4        6.829046e+00
    5        2.933639e+00
    6       -3.059154e+00
    7       -4.787422e+00
    8       -4.688620e+00
    9       -1.233847e+00
   10        2.428790e+00
   11        8.743030e-01
   12       -2.861562e+00
   13       -6.201538e-01
   14        9.081162e-01
   15        4.352187e+00
   16        3.366680e+00
   17        2.610422e+00
   18       -2.139211e+00
   19       -1.030893e+00
   20       -3.889076e+00
   21       -4.009839e-01
   22       -4.155414e+00
   23        3.969912e+00
   24       -3.618416e+00
   25       -3.182855e+00
   26        7.280538e+00
   27        2.379404e+00
   28       -3.442454e-01
   29       -6.787725e+00
   30       -1.635393e+00
   31       -1.910711e+00
   32       -1.087725e+01
   33       -4.416166e+00
   34        1.172315e-01
   35       -4.607148e+00
   36        1.537936e+00
   37       -7.029150e-02
   38       -5.735480e+00
   39       -2.240193e+00
   40       -6.338772e-01
   41       -5.251144e+00
   42       -6.122524e+00
   43       -2.042790e+00
   44       -4.984453e+00
   45        7.824668e-01
   46        2.607874e+00
   47       -4.747436e+00
   48        1.737961e+00
   49       -1.601064e+00
   50       -1.732694e+00
   51       -2.474476e+00
   52        4.511950e+00
   53        3.749016e+00
   54        5.987750e-01
   55       -4.004913e+00
   56        2.618878e+00
   57       -4.938921e+00
   58        2.634252e+00
   59        1.628590e+00
   60        4.341051e+00
   61        2.669605e+00
   62        2.546449e+00
   63        2.193445e+00
   64        2.062247e+00
   65        1.268672e+00
   66        1.882732e+00
   67        5.997808e+00
   68       -1.921847e+00
   69        1.355150e+00
   70       -1.542509e+00
   71       -2.528818e-01
   72       -1.522248e+00
   73        2.953603e+00
   74        1.319025e-01
   75       -2.965942e+00
   76        3.442338e+00
   77       -1.469483e+00
   78       -3.823233e+00
   79        3.707683e-01
   80        4.444614e+00
   81        1.744940e+00
   82        3.293829e+00
   83       -4.057700e+00
   84        9.035260e-01
   85        2.414801e+00
   86       -6.287661e-01
   87       -1.504432e+00
   88       -9.931777e-01
   89        2.761257e+00
   90       -6.480222e+00
   91       -1.505606e+00
   92       -2.324707e+00
   93       -1.796389e+00
   94       -7.815122e-01
   95        5.554853e+00
   96       -6.556293e-01
   97        1.549804e+00
   98        1.110290e-01
   99        2.267795e+00
  100        4.982774e+00
;
param X:=
    1       -7.665569e-01
    2        7.577985e-03
    3        9.611400e-01
    4        6.829046e+00
    5       -2.326473e+00
    6       -3.059154e+00
    7        4.679204e-01
    8        2.045127e-01
    9       -1.093797e+00
   10        2.428790e+00
   11        8.743030e-01
   12       -7.927537e-01
   13        1.279044e+00
   14        8.815724e-01
   15       -8.568628e-01
   16        3.366680e+00
   17        1.072299e+00
   18       -4.181022e-01
   19       -1.036668e-01
   20       -6.220115e-01
   21       -1.455940e+00
   22        1.585764e+00
   23        1.127513e+00
   24       -3.618416e+00
   25       -6.730201e-01
   26        7.280538e+00
   27       -1.540223e+00
   28       -1.771447e-01
   29        3.513874e-01
   30        4.020381e-01
   31       -1.910711e+00
   32        2.648689e-01
   33       -7.910951e-01
   34       -8.861122e-01
   35       -4.607148e+00
   36       -1.131176e-01
   37       -3.418210e-01
   38        4.381417e-01
   39       -9.117574e-02
   40       -2.109547e-02
   41       -5.251144e+00
   42        1.765304e-01
   43        9.242221e-02
   44        6.662593e-02
   45       -2.784611e-02
   46        2.607874e+00
   47        5.309773e-01
   48       -5.564446e-01
   49        3.641751e-01
   50       -1.021629e+00
   51        8.320146e-01
   52        1.193359e+00
   53        1.734574e+00
   54        9.996819e-01
   55        7.155776e-01
   56        2.918623e-01
   57       -5.002577e-01
   58        2.634252e+00
   59       -1.454777e-01
   60        3.469593e-01
   61       -7.000537e-01
   62       -1.265064e+00
   63        2.193445e+00
   64        2.062247e+00
   65        5.580130e-02
   66       -1.315401e-01
   67        5.675112e-01
   68        2.011427e+00
   69        4.119943e-01
   70       -1.489549e+00
   71       -2.528818e-01
   72       -2.236642e-02
   73       -2.176066e+00
   74        1.319025e-01
   75       -8.194605e-01
   76        3.442338e+00
   77       -2.560714e-01
   78       -1.751267e-01
   79       -1.884727e+00
   80        4.205497e-02
   81       -2.310997e-02
   82       -1.392855e-02
   83       -4.057700e+00
   84        1.116931e+00
   85        1.499825e+00
   86       -7.313222e-01
   87       -1.504432e+00
   88        6.418974e-01
   89        2.761257e+00
   90       -6.480222e+00
   91        8.734299e-01
   92        1.056610e+00
   93        2.864699e-02
   94       -7.815122e-01
   95        7.148310e-01
   96       -6.556293e-01
   97        6.263964e-01
   98       -3.000750e-01
   99        1.732214e+00
  100        4.166023e-01
;
param outliervec:=
    1    1
    2    0
    3    1
    4    0
    5    1
    6    0
    7    1
    8    1
    9    1
   10    0
   11    0
   12    1
   13    1
   14    1
   15    1
   16    0
   17    1
   18    1
   19    1
   20    1
   21    1
   22    1
   23    1
   24    0
   25    1
   26    0
   27    1
   28    1
   29    1
   30    1
   31    0
   32    1
   33    1
   34    1
   35    0
   36    1
   37    1
   38    1
   39    1
   40    1
   41    0
   42    1
   43    1
   44    1
   45    1
   46    0
   47    1
   48    1
   49    1
   50    1
   51    1
   52    1
   53    1
   54    1
   55    1
   56    1
   57    1
   58    0
   59    1
   60    1
   61    1
   62    1
   63    0
   64    0
   65    1
   66    1
   67    1
   68    1
   69    1
   70    1
   71    0
   72    1
   73    1
   74    0
   75    1
   76    0
   77    1
   78    1
   79    1
   80    1
   81    1
   82    1
   83    0
   84    1
   85    1
   86    1
   87    0
   88    1
   89    0
   90    0
   91    1
   92    1
   93    1
   94    0
   95    1
   96    0
   97    1
   98    1
   99    1
  100    1
;